webassembly/ejemplos_dzn/9/folder9_json_91.dzn
TERM = { '.', 's(2)', 'in_1', 'local_0', 'local_1', 'in_2', 'in_4', 'in_3', 's(1)', 's(0)', 'in_5', 's(3)', 'in_0'};
null = '.';
s = 9;
n = 11;
ndeps = 4;
max_registers_sz = 3;
NR = 0;
registers = [| |];
dependencies = [|'i32.store8_0', 'i32.load8_s_1', |'i32.load8_s_1', 'i32.store_2', |'i32.store_2', 'i32.store16_4', |'i32.store16_4', 'i32.load_8'|];
GET_ENUM = { GET1, GET2, GET3};
SET_ENUM = { SET1, SET2, SET3};
TEE_ENUM = { TEE1, TEE2, TEE3};
N = 9;
OP = { 'i32.sub_0', 'i32.store8_0', 'i32.load8_s_1', 'i32.store_2', 'i32.const_0', 'i32.store16_4', 'i32.load_8', 'local.get_0', 'local.get_1' };
in_ops = [2, 2, 1, 2, 0, 2, 1, 0, 0 ];
out_ops = [1, 0, 1, 0, 1, 0, 1, 1, 1 ];
in1 = ['local_1', 'in_0', 'in_2', 's(0)', '.', 's(3)', 'local_0', '.', '.' ];
in2 = ['in_5', 'in_1', '.', 'in_3', '.', 'in_4', '.', '.', '.' ];
in3 = ['.', '.', '.', '.', '.', '.', '.', '.', '.' ];
out1 = ['s(1)', '.', 's(0)', '.', 's(3)', '.', 's(2)', 'local_0', 'local_1' ];
out2 = ['.', '.', '.', '.', '.', '.', '.', '.', '.' ];
out3 = ['.', '.', '.', '.', '.', '.', '.', '.', '.' ];
comm = [false, false, false, false, false, false, false, false, false ];
gas = [1, 1, 1, 1, 1, 1, 1, 1, 1 ];
sz = [1, 1, 1, 1, 1, 1, 1, 1, 1 ];
stor = [false, true, false, true, false, true, false, false, false ];
lb = [ 1, 1, 1, 1, 1, 1, 1, 1, 1 ];
ub = [ 9, 9, 9, 9, 9, 9, 9, 9, 9 ];
startstack = [ 'in_0', 'in_1', 'in_2', 'in_3', 'in_4', 'in_5', null, null, null, null, null ];
endstack = [ 's(2)', 's(1)', null, null, null, null, null, null, null, null, null ];
