webassembly/ejemplos_results/9/folder9_json_91.txt
value = 9;
fgas = [1, 1, 1, 1, 1, 1, 1, 1, 1];
fsize = [1, 1, 1, 1, 1, 1, 1, 1, 1];
states = 
[|    in_0,   in_1,   in_2,   in_3, in_4, in_5, '.', '.', '.', '.',  '.'
 |    in_2,   in_3,   in_4,   in_5,  '.',  '.', '.', '.', '.', '.',  '.'
 |  's(0)',   in_3,   in_4,   in_5,  '.',  '.', '.', '.', '.', '.',  '.'
 | local_0,   in_5,    '.',    '.',  '.',  '.', '.', '.', '.', '.', in_0
 |  's(2)',   in_0,    '.',    '.',  '.',  '.', '.', '.', '.', '.', in_0
 | local_1,   in_5,   in_0,    '.',  '.',  '.', '.', '.', '.', '.',  '.'
 |  's(1)', 's(1)',    '.',    '.',  '.',  '.', '.', '.', '.', '.', in_0
 | local_0,   in_0, 's(1)',    '.',  '.',  '.', '.', '.', '.', '.',  '.'
 |  's(3)',   in_4,   in_0, 's(1)',  '.',  '.', '.', '.', '.', '.',  '.'
 |  's(2)', 's(1)',    '.',    '.',  '.',  '.', '.', '.', '.', '.',  '.'
 |];
register_states = 
[| '.', '.', '.'
 | '.', '.', '.'
 | '.', '.', '.'
 | '.', '.', '.'
 | '.', '.', '.'
 | '.', '.', '.'
 | '.', '.', '.'
 | '.', '.', '.'
 | '.', '.', '.'
 | '.', '.', '.'
 |];
program = [O('i32.store8_0'), O('i32.load8_s_1'), O('i32.store_2'), O('i32.load_8'), O('local.get_1'), O('i32.sub_0'), O('local.get_0'), O('i32.const_0'), O('i32.store16_4')];
% time elapsed: 0.12 s
----------
==========
% time elapsed: 0.13 s
% [value > 8]
